2358
1181
8622
3734
9153
9910
6990
3694
8165
7865
1215
5064
4445
9173
1098
5259
779
7496
7758
10006
4834
565
2451
8715
3964
8196
5078
2248
3044
5781
3471
6882
1488
9521
9958
6426
6869
7884
506
2002
7945
6002
4577
3626
1082
1639
9505
5819
4419
8207
